# Solution for model germination_srl_ilp
# Objective value = 2.7108225356177287e+00
Z_449_0_0 0
Z_449_0_1 0
Z_449_0_2 1
Z_449_0_3 0
Z_649_0_0 0
Z_649_0_1 1
Z_649_0_2 0
Z_649_0_3 0
Z_408_0_0 0
Z_408_0_1 1
Z_408_0_2 0
Z_408_0_3 0
Z_615_1_0 1
Z_615_1_1 0
Z_615_1_2 0
Z_615_1_3 0
Z_615_2_0 0
Z_615_2_1 0
Z_615_2_2 0
Z_615_2_3 0
Z_615_4_0 0
Z_615_4_1 0
Z_615_4_2 0
Z_615_4_3 0
Z_615_5_0 0
Z_615_5_1 0
Z_615_5_2 1
Z_615_5_3 0
Z_615_3_0 0
Z_615_3_1 1
Z_615_3_2 0
Z_615_3_3 0
Z_615_0_0 0
Z_615_0_1 0
Z_615_0_2 0
Z_615_0_3 1
Z_235_0_0 0
Z_235_0_1 1
Z_235_0_2 0
Z_235_0_3 0
Z_430_0_0 0
Z_430_0_1 0
Z_430_0_2 1
Z_430_0_3 0
Z_282_0_0 0
Z_282_0_1 1
Z_282_0_2 0
Z_282_0_3 0
